
--- Job SLPWR.gms Start 12/12/23 23:43:45 45.4.0 19dc3313 WEX-WEI x86 64bit/MS Windows
--- Applying:
    C:\GAMS\45\gmsprmNT.txt
--- GAMS Parameters defined
    Input "D:\HCMUT\HK231\Math Model\BTL\SLPWR.gms"
    PageSize 0
    ScrDir "D:\HCMUT\HK231\Math Model\BTL\225a\"
    SysDir C:\GAMS\45\
    LogOption 3
    ErrMsg 1
    ErrorLog 99
    IDE 1
    LstTitleLeftAligned 1
Licensee: GAMS Demo, for EULA and demo limitations see   G230930/0001CB-GEN
          https://www.gams.com/latest/docs/UG%5FLicense.html         DC0000
          C:\GAMS\45\gamslice.txt
          Demo license for demonstration and instructional purposes only
Processor information: 1 socket(s), 4 core(s), and 8 thread(s) available
GAMS 45.4.0   Copyright (C) 1987-2023 GAMS Development. All rights reserved
--- Starting compilation
--- SLPWR.gms(55) 3 Mb
--- Starting execution: elapsed 0:00:00.006
--- SLPWR.gms(53) 4 Mb
--- Generating MIP model SLP
--- SLPWR.gms(55) 4 Mb
---   58 rows  32 columns  161 non-zeroes
---   31 discrete-columns
--- Range statistics (absolute non-zero finite values)
--- RHS       [min, max] : [ 3.000E+00, 9.000E+00] - Zero values observed as well
--- Bound     [min, max] : [        NA,        NA] - Zero values observed as well
--- Matrix    [min, max] : [ 1.000E+00, 9.150E+01]
--- Executing CPLEX (Solvelink=2): elapsed 0:00:00.143

IBM ILOG CPLEX   45.4.0 19dc3313 Nov 27, 2023          WEI x86 64bit/MS Window

*** This solver runs with a demo license. No commercial use.
--- GMO setup time: 0.00s
--- GMO memory 0.51 Mb (peak 0.51 Mb)
--- Dictionary memory 0.00 Mb
--- Cplex 22.1.1.0 link memory 0.00 Mb (peak 0.01 Mb)
--- Starting Cplex

Version identifier: 22.1.1.0 | 2022-11-27 | 9160aff4d
CPXPARAM_Advance                                 0
CPXPARAM_Threads                                 1
CPXPARAM_MIP_Display                             4
CPXPARAM_MIP_Pool_Capacity                       0
CPXPARAM_MIP_Tolerances_AbsMIPGap                0
Generic callback                                 0x50
Found incumbent of value 0.000000 after 0.00 sec. (0.00 ticks)
Tried aggregator 2 times.
MIP Presolve eliminated 47 rows and 1 columns.
MIP Presolve added 13 rows and 13 columns.
Aggregator did 5 substitutions.
Reduced MIP has 18 rows, 39 columns, and 111 nonzeros.
Reduced MIP has 0 binaries, 39 generals, 0 SOSs, and 0 indicators.
Presolve time = 0.00 sec. (0.07 ticks)
Tried aggregator 1 time.
Detecting symmetries...
MIP Presolve eliminated 13 rows and 13 columns.
MIP Presolve added 13 rows and 13 columns.
Reduced MIP has 18 rows, 39 columns, and 111 nonzeros.
Reduced MIP has 0 binaries, 39 generals, 0 SOSs, and 0 indicators.
Presolve time = 0.00 sec. (0.06 ticks)
MIP emphasis: balance optimality and feasibility.
MIP search method: dynamic search.
Parallel mode: none, using 1 thread.
Tried aggregator 1 time.
LP Presolve eliminated 14 rows and 29 columns.
Reduced LP has 4 rows, 10 columns, and 16 nonzeros.
Presolve time = 0.00 sec. (0.02 ticks)

Iteration log . . .
Iteration:     1   Dual infeasibility =             8.500000
Iteration:     5   Dual objective     =         -3537.500000
Initializing dual steep norms . . .
Root relaxation solution time = 0.00 sec. (0.03 ticks)

        Nodes                                         Cuts/
   Node  Left     Objective  IInf  Best Integer    Best Bound    ItCnt     Gap

*     0+    0                            0.0000                            --- 
Found incumbent of value 0.000000 after 0.03 sec. (0.19 ticks)
*     0     0      integral     0    -3449.5000    -3449.5000        6    0.00%
Elapsed time = 0.03 sec. (0.20 ticks, tree = 0.00 MB)
Found incumbent of value -3449.500000 after 0.03 sec. (0.20 ticks)

Root node processing (before b&c):
  Real time             =    0.03 sec. (0.20 ticks)
Sequential b&c:
  Real time             =    0.00 sec. (0.00 ticks)
                          ------------
Total (root+branch&cut) =    0.03 sec. (0.20 ticks)

--- MIP status (101): integer optimal solution.
--- Cplex Time: 0.03sec (det. 0.20 ticks)

--- Returning a primal only solution to GAMS (marginals all set to NA).
--- Fixing integer variables and solving final LP...

Version identifier: 22.1.1.0 | 2022-11-27 | 9160aff4d
CPXPARAM_Advance                                 2
CPXPARAM_Threads                                 1
CPXPARAM_MIP_Display                             4
CPXPARAM_MIP_Pool_Capacity                       0
CPXPARAM_MIP_Tolerances_AbsMIPGap                0
Tried aggregator 1 time.
LP Presolve eliminated 57 rows and 32 columns.
All rows and columns eliminated.
Presolve time = 0.00 sec. (0.02 ticks)

--- Fixed MIP status (1): optimal.
--- Cplex Time: 0.00sec (det. 0.03 ticks)


Proven optimal solution
MIP Solution:        -3449.500000    (6 iterations, 0 nodes)
Final Solve:         -3449.500000    (0 iterations)

Best possible:       -3449.500000
Absolute gap:            0.000000
Relative gap:            0.000000

--- Reading solution for model SLP
--- Executing after solve: elapsed 0:00:00.382
*** Status: Normal completion
--- Job SLPWR.gms Stop 12/12/23 23:43:46 elapsed 0:00:00.382
